# Objective value = 75
WA1n 0
WA1p 0
WA2n 1
WA2p 0
WB1n 0
WB1p 0
WB2n 1
WB2p 0
WC1n 0
WC1p 0
WC2n 0
WC2p 1
WD1n 0
WD1p 0
WD2n 0
WD2p 1
WE1n 2
WE1p 0
WF1n 2
WF1p 0
WG1n 2
WG1p 0
WH1n 2
WH1p 0
WI1n 0
WI1p 2
WJ1n 0
WJ1p 10
WJ2n 0
WJ2p 1
WK1n 12
WK1p 0
WK2n 1
WK2p 0
WL1n 12
WL1p 0
WL2n 1
WL2p 0
WM1n 12
WM1p 0
WM2n 1
WM2p 0
WT1n 0
WT1p 1
WT2n 0
WT2p 1
5 7
a 0
b 0
c 0
d 0
e 0
f 1
g 0
h 1
i 0
j 0
k 0
l 0
m 1
n 1
o 1
p 0
q 0
r 0
s 0
t 0
u 0
v 1
w 1
